! UKS TightSCF wB97x-D3 def2-TZVPD xyzfile opt freq

# CH3 radical 100.0 degrees fixed

%geom Constraints
        { A * 0 * C }
    end
end
* xyz 0 2
C 0.00 0.00 0.00
H 0.9553160854 0.0000000000 -0.5037570615
H -0.4776580427 0.8273279986 -0.5037570615
H -0.4776580427 -0.8273279986 -0.5037570615
*